unsat
(:max-memory          18.07
 :memory              17.92
 :nlsat-conflicts     3
 :nlsat-learned-added 2
 :nlsat-propagations  7
 :nlsat-stages        4
 :num-allocs          5554
 :rlimit-count        1761
 :time                0.00
 :total-time          0.01)
